Maximize
  1.8132511397912822e-04 Z_206_0_0 + 0.00342756931756297 Z_206_0_1
   + 0.8001029767714433 Z_206_0_2 + 9.7633867195388282e-04 Z_206_0_3
   + 0.0953117901250608 Z_206_0_4 + 0.00641798272526076 Z_206_1_0
   + 0.034140706935813 Z_206_1_1 + 0.044828752503113 Z_206_1_2
   + 0.0186627472990176 Z_206_1_3 + 0.7959498105367957 Z_206_1_4
   + 0.5656863600797043 Z_206_2_0 + 0.1045283547262488 Z_206_2_1
   + 0.0125166774120929 Z_206_2_2 + 0.0147697730628249 Z_206_2_3
   + 0.2024988347191292 Z_206_2_4 + 0.00167439651030282 Z_40_0_0
   + 7.9585528713173792e-04 Z_40_0_1 + 0.00146985885116024 Z_40_0_2
   + 0.5024348563058986 Z_40_0_3 + 0.3936250330455067 Z_40_0_4
   + 0.00232753511930649 Z_259_0_0 + 0.0115182448271753 Z_259_0_1
   + 0.00223100413991532 Z_259_0_2 + 0.5012376165778055 Z_259_0_3
   + 0.3826855993357974 Z_259_0_4 + 7.1766243951057961e-04 Z_316_0_0
   + 0.005744620536254 Z_316_0_1 + 0.0146425005110533 Z_316_0_2
   + 0.1612297303290739 Z_316_0_3 + 0.7176654861841084 Z_316_0_4
   + 0.000905109 Z_361_0_0 + 0.0742521568025195 Z_361_0_1
   + 0.00328923433365172 Z_361_0_2 + 0.6286795679509558 Z_361_0_3
   + 0.1928739318909097 Z_361_0_4 + 0.000269764 Z_85_1_0
   + 1.5855974195470529e-04 Z_85_1_1 + 0.8654475762136985 Z_85_1_2
   + 0.00724073899839471 Z_85_1_3 + 0.0268833611226348 Z_85_1_4
   + 0.00246004685137619 Z_85_0_0 + 0.0892770298549247 Z_85_0_1
   + 0.00528064661883943 Z_85_0_2 + 0.7571457742048698 Z_85_0_3
   + 0.0458365024699897 Z_85_0_4 + [
   0.00129215636174167 Z_206_0_0 * Z_40_0_0
   + 0.0334830188936123 Z_206_0_0 * Z_259_0_0
   + 0.1804096463233179 Z_206_0_0 * Z_316_0_0
   + 0.077184214354369 Z_206_0_0 * Z_361_0_0 + 0.4 Z_206_0_0 * Z_85_1_0
   + 0.0827753133532066 Z_206_0_0 * Z_85_0_0
   + 0.00129215636174167 Z_206_0_1 * Z_40_0_1
   + 0.0334830188936123 Z_206_0_1 * Z_259_0_1
   + 0.1804096463233179 Z_206_0_1 * Z_316_0_1
   + 0.077184214354369 Z_206_0_1 * Z_361_0_1 + 0.4 Z_206_0_1 * Z_85_1_1
   + 0.0827753133532066 Z_206_0_1 * Z_85_0_1
   + 0.00129215636174167 Z_206_0_2 * Z_40_0_2
   + 0.0334830188936123 Z_206_0_2 * Z_259_0_2
   + 0.1804096463233179 Z_206_0_2 * Z_316_0_2
   + 0.077184214354369 Z_206_0_2 * Z_361_0_2 + 0.4 Z_206_0_2 * Z_85_1_2
   + 0.0827753133532066 Z_206_0_2 * Z_85_0_2
   + 0.00129215636174167 Z_206_0_3 * Z_40_0_3
   + 0.0334830188936123 Z_206_0_3 * Z_259_0_3
   + 0.1804096463233179 Z_206_0_3 * Z_316_0_3
   + 0.077184214354369 Z_206_0_3 * Z_361_0_3 + 0.4 Z_206_0_3 * Z_85_1_3
   + 0.0827753133532066 Z_206_0_3 * Z_85_0_3
   + 0.00129215636174167 Z_206_0_4 * Z_40_0_4
   + 0.0334830188936123 Z_206_0_4 * Z_259_0_4
   + 0.1804096463233179 Z_206_0_4 * Z_316_0_4
   + 0.077184214354369 Z_206_0_4 * Z_361_0_4 + 0.4 Z_206_0_4 * Z_85_1_4
   + 0.0827753133532066 Z_206_0_4 * Z_85_0_4
   + 0.0662891977705367 Z_206_1_0 * Z_259_0_0
   + 0.0603776282723576 Z_206_1_0 * Z_316_0_0
   + 0.0603776282723576 Z_206_1_0 * Z_361_0_0
   + 0.1190289749795865 Z_206_1_0 * Z_85_0_0
   + 0.0662891977705367 Z_206_1_1 * Z_259_0_1
   + 0.0603776282723576 Z_206_1_1 * Z_316_0_1
   + 0.0603776282723576 Z_206_1_1 * Z_361_0_1
   + 0.1190289749795865 Z_206_1_1 * Z_85_0_1
   + 0.0662891977705367 Z_206_1_2 * Z_259_0_2
   + 0.0603776282723576 Z_206_1_2 * Z_316_0_2
   + 0.0603776282723576 Z_206_1_2 * Z_361_0_2
   + 0.1190289749795865 Z_206_1_2 * Z_85_0_2
   + 0.0662891977705367 Z_206_1_3 * Z_259_0_3
   + 0.0603776282723576 Z_206_1_3 * Z_316_0_3
   + 0.0603776282723576 Z_206_1_3 * Z_361_0_3
   + 0.1190289749795865 Z_206_1_3 * Z_85_0_3
   + 0.0662891977705367 Z_206_1_4 * Z_259_0_4
   + 0.0603776282723576 Z_206_1_4 * Z_316_0_4
   + 0.0603776282723576 Z_206_1_4 * Z_361_0_4
   + 0.1190289749795865 Z_206_1_4 * Z_85_0_4
   + 0.00487247261553327 Z_206_2_0 * Z_40_0_0
   + 0.0143191031966692 Z_206_2_0 * Z_259_0_0
   + 0.2245909858408023 Z_206_2_0 * Z_316_0_0
   + 0.1754090141591976 Z_206_2_0 * Z_361_0_0
   + 0.1754090141591976 Z_206_2_0 * Z_85_0_0
   + 0.00487247261553327 Z_206_2_1 * Z_40_0_1
   + 0.0143191031966692 Z_206_2_1 * Z_259_0_1
   + 0.2245909858408023 Z_206_2_1 * Z_316_0_1
   + 0.1754090141591976 Z_206_2_1 * Z_361_0_1
   + 0.1754090141591976 Z_206_2_1 * Z_85_0_1
   + 0.00487247261553327 Z_206_2_2 * Z_40_0_2
   + 0.0143191031966692 Z_206_2_2 * Z_259_0_2
   + 0.2245909858408023 Z_206_2_2 * Z_316_0_2
   + 0.1754090141591976 Z_206_2_2 * Z_361_0_2
   + 0.1754090141591976 Z_206_2_2 * Z_85_0_2
   + 0.00487247261553327 Z_206_2_3 * Z_40_0_3
   + 0.0143191031966692 Z_206_2_3 * Z_259_0_3
   + 0.2245909858408023 Z_206_2_3 * Z_316_0_3
   + 0.1754090141591976 Z_206_2_3 * Z_361_0_3
   + 0.1754090141591976 Z_206_2_3 * Z_85_0_3
   + 0.00487247261553327 Z_206_2_4 * Z_40_0_4
   + 0.0143191031966692 Z_206_2_4 * Z_259_0_4
   + 0.2245909858408023 Z_206_2_4 * Z_316_0_4
   + 0.1754090141591976 Z_206_2_4 * Z_361_0_4
   + 0.1754090141591976 Z_206_2_4 * Z_85_0_4
   + 0.0312154120791405 Z_40_0_0 * Z_316_0_0
   + 0.00199268786419611 Z_40_0_0 * Z_85_0_0
   + 0.0312154120791405 Z_40_0_1 * Z_316_0_1
   + 0.00199268786419611 Z_40_0_1 * Z_85_0_1
   + 0.0312154120791405 Z_40_0_2 * Z_316_0_2
   + 0.00199268786419611 Z_40_0_2 * Z_85_0_2
   + 0.0312154120791405 Z_40_0_3 * Z_316_0_3
   + 0.00199268786419611 Z_40_0_3 * Z_85_0_3
   + 0.0312154120791405 Z_40_0_4 * Z_316_0_4
   + 0.00199268786419611 Z_40_0_4 * Z_85_0_4
   + 0.1106785441252287 Z_259_0_0 * Z_316_0_0
   + 0.2080066036920525 Z_259_0_0 * Z_361_0_0
   + 1.4939e-06 Z_259_0_0 * Z_85_1_0
   + 0.1341996787895216 Z_259_0_0 * Z_85_0_0
   + 0.1106785441252287 Z_259_0_1 * Z_316_0_1
   + 0.2080066036920525 Z_259_0_1 * Z_361_0_1
   + 1.4939e-06 Z_259_0_1 * Z_85_1_1
   + 0.1341996787895216 Z_259_0_1 * Z_85_0_1
   + 0.1106785441252287 Z_259_0_2 * Z_316_0_2
   + 0.2080066036920525 Z_259_0_2 * Z_361_0_2
   + 1.4939e-06 Z_259_0_2 * Z_85_1_2
   + 0.1341996787895216 Z_259_0_2 * Z_85_0_2
   + 0.1106785441252287 Z_259_0_3 * Z_316_0_3
   + 0.2080066036920525 Z_259_0_3 * Z_361_0_3
   + 1.4939e-06 Z_259_0_3 * Z_85_1_3
   + 0.1341996787895216 Z_259_0_3 * Z_85_0_3
   + 0.1106785441252287 Z_259_0_4 * Z_316_0_4
   + 0.2080066036920525 Z_259_0_4 * Z_361_0_4
   + 1.4939e-06 Z_259_0_4 * Z_85_1_4
   + 0.1341996787895216 Z_259_0_4 * Z_85_0_4
   + 0.055547998006756 Z_316_0_0 * Z_361_0_0
   + 0.055547998006756 Z_316_0_0 * Z_85_0_0
   + 0.055547998006756 Z_316_0_1 * Z_361_0_1
   + 0.055547998006756 Z_316_0_1 * Z_85_0_1
   + 0.055547998006756 Z_316_0_2 * Z_361_0_2
   + 0.055547998006756 Z_316_0_2 * Z_85_0_2
   + 0.055547998006756 Z_316_0_3 * Z_361_0_3
   + 0.055547998006756 Z_316_0_3 * Z_85_0_3
   + 0.055547998006756 Z_316_0_4 * Z_361_0_4
   + 0.055547998006756 Z_316_0_4 * Z_85_0_4
   + 5.23552e-07 Z_361_0_0 * Z_85_1_0
   + 0.1190289749795865 Z_361_0_0 * Z_85_0_0
   + 5.23552e-07 Z_361_0_1 * Z_85_1_1
   + 0.1190289749795865 Z_361_0_1 * Z_85_0_1
   + 5.23552e-07 Z_361_0_2 * Z_85_1_2
   + 0.1190289749795865 Z_361_0_2 * Z_85_0_2
   + 5.23552e-07 Z_361_0_3 * Z_85_1_3
   + 0.1190289749795865 Z_361_0_3 * Z_85_0_3
   + 5.23552e-07 Z_361_0_4 * Z_85_1_4
   + 0.1190289749795865 Z_361_0_4 * Z_85_0_4 ] / 2 
Subject To
 constraint1_2060: Z_206_0_0 + Z_206_0_1 + Z_206_0_2 + Z_206_0_3
   + Z_206_0_4 <= 1
 constraint1_2061: Z_206_1_0 + Z_206_1_1 + Z_206_1_2 + Z_206_1_3
   + Z_206_1_4 <= 1
 constraint1_2062: Z_206_2_0 + Z_206_2_1 + Z_206_2_2 + Z_206_2_3
   + Z_206_2_4 <= 1
 constraint1_400: Z_40_0_0 + Z_40_0_1 + Z_40_0_2 + Z_40_0_3 + Z_40_0_4
   <= 1
 constraint1_2590: Z_259_0_0 + Z_259_0_1 + Z_259_0_2 + Z_259_0_3
   + Z_259_0_4 <= 1
 constraint1_3160: Z_316_0_0 + Z_316_0_1 + Z_316_0_2 + Z_316_0_3
   + Z_316_0_4 <= 1
 constraint1_3610: Z_361_0_0 + Z_361_0_1 + Z_361_0_2 + Z_361_0_3
   + Z_361_0_4 <= 1
 constraint1_851: Z_85_1_0 + Z_85_1_1 + Z_85_1_2 + Z_85_1_3 + Z_85_1_4
   <= 1
 constraint1_850: Z_85_0_0 + Z_85_0_1 + Z_85_0_2 + Z_85_0_3 + Z_85_0_4
   <= 1
 constraint2_2060: Z_206_0_0 + Z_206_1_0 + Z_206_2_0 <= 1
 constraint2_2061: Z_206_0_1 + Z_206_1_1 + Z_206_2_1 <= 1
 constraint2_2062: Z_206_0_2 + Z_206_1_2 + Z_206_2_2 <= 1
 constraint2_2063: Z_206_0_3 + Z_206_1_3 + Z_206_2_3 <= 1
 constraint2_400: Z_40_0_0 <= 1
 constraint2_401: Z_40_0_1 <= 1
 constraint2_402: Z_40_0_2 <= 1
 constraint2_403: Z_40_0_3 <= 1
 constraint2_2590: Z_259_0_0 <= 1
 constraint2_2591: Z_259_0_1 <= 1
 constraint2_2592: Z_259_0_2 <= 1
 constraint2_2593: Z_259_0_3 <= 1
 constraint2_3160: Z_316_0_0 <= 1
 constraint2_3161: Z_316_0_1 <= 1
 constraint2_3162: Z_316_0_2 <= 1
 constraint2_3163: Z_316_0_3 <= 1
 constraint2_3610: Z_361_0_0 <= 1
 constraint2_3611: Z_361_0_1 <= 1
 constraint2_3612: Z_361_0_2 <= 1
 constraint2_3613: Z_361_0_3 <= 1
 constraint2_850: Z_85_1_0 + Z_85_0_0 <= 1
 constraint2_851: Z_85_1_1 + Z_85_0_1 <= 1
 constraint2_852: Z_85_1_2 + Z_85_0_2 <= 1
 constraint2_853: Z_85_1_3 + Z_85_0_3 <= 1
Bounds
Binaries
 Z_206_0_0 Z_206_0_1 Z_206_0_2 Z_206_0_3 Z_206_0_4 Z_206_1_0 Z_206_1_1
 Z_206_1_2 Z_206_1_3 Z_206_1_4 Z_206_2_0 Z_206_2_1 Z_206_2_2 Z_206_2_3
 Z_206_2_4 Z_40_0_0 Z_40_0_1 Z_40_0_2 Z_40_0_3 Z_40_0_4 Z_259_0_0 Z_259_0_1
 Z_259_0_2 Z_259_0_3 Z_259_0_4 Z_316_0_0 Z_316_0_1 Z_316_0_2 Z_316_0_3
 Z_316_0_4 Z_361_0_0 Z_361_0_1 Z_361_0_2 Z_361_0_3 Z_361_0_4 Z_85_1_0
 Z_85_1_1 Z_85_1_2 Z_85_1_3 Z_85_1_4 Z_85_0_0 Z_85_0_1 Z_85_0_2 Z_85_0_3
 Z_85_0_4
End
